<instance format="XCSP3" type="CSP">
  <variables>
    <var id="x0"> 8 12..14 </var>
    <var id="x1"> 3 4 14 </var>
    <var id="x2"> 3 4 8 9 13 14 </var>
    <var id="x3"> 3 8 12..14 </var>
    <var id="x4"> 8 9 12 </var>
    <var id="x5"> 4 12 14 </var>
    <var id="x6"> 9 12..14 </var>
    <var id="x7"> 2 4 8 10 12 </var>
    <var id="x8"> 4 10 12 13 </var>
    <var id="x9"> 2 4 8 14 </var>
    <var id="x10"> 2 8 12..14 </var>
    <var id="x11"> 4 8 13 14 </var>
    <var id="x12"> 8 10 12 </var>
    <var id="x13"> 4 8 10 12 14 </var>
    <var id="x14"> 1 5 12 13 </var>
    <var id="x15"> 3 5 13 </var>
    <var id="x16"> 1 6 12 </var>
    <var id="x17"> 1 3 12 13 </var>
    <var id="x18"> 11 12 </var>
    <var id="x19"> 3 6 12 </var>
    <var id="x20"> 1 5 12 </var>
    <var id="x21"> 0 2 4 14 </var>
    <var id="x22"> 1 4 8 12 </var>
    <var id="x23"> 0 2 4 8 14 </var>
    <var id="x24"> 1 2 8 12 14 </var>
    <var id="x25"> 4 8 14 </var>
    <var id="x26"> 0 4 8 12 </var>
    <var id="x27"> 1 4 8 12 14 </var>
    <var id="x28"> 5 8 13 </var>
    <var id="x29"> 3..5 </var>
    <var id="x30"> 3..5 8 9 13 </var>
    <var id="x31"> 3 8 13 </var>
    <var id="x32"> 4 8 9 13 </var>
    <var id="x33"> 4 10 </var>
    <var id="x34"> 3..5 8 </var>
    <var id="x35"> 0 5 11 14 </var>
    <var id="x36"> 8 10 11 </var>
    <var id="x37"> 5 8 13 14 </var>
    <var id="x38"> 7 8 10 </var>
    <var id="x39"> 0 5 8 14 </var>
    <var id="x40"> 8 11 13 14 </var>
    <var id="x41"> 0 8 10 </var>
    <var id="x42"> 10 13 14 </var>
    <var id="x43"> 1 8 14 </var>
    <var id="x44"> 8 9 11 </var>
    <var id="x45"> 0 8 9 14 </var>
    <var id="x46"> 0 1 8 9 11 </var>
    <var id="x47"> 0 8 </var>
    <var id="x48"> 1 8 14 </var>
    <var id="x49"> 7 8 14 </var>
    <var id="x50"> 1 5 12 14 </var>
    <var id="x51"> 4 5 10..12 </var>
    <var id="x52"> 1 4 10 12 </var>
    <var id="x53"> 1 12 14 </var>
    <var id="x54"> 4 11 14 </var>
    <var id="x55"> 4 10 12 </var>
    <var id="x56"> 1 10 12 14 </var>
    <var id="x57"> 8 12 14 </var>
    <var id="x58"> 4 9 12 </var>
    <var id="x59"> 3 8 12 14 </var>
    <var id="x60"> 4 6 8 9 14 </var>
    <var id="x61"> 4 12 14 </var>
    <var id="x62"> 6 9 12 14 </var>
    <var id="x63"> 3 4 8 14 </var>
    <var id="x64"> 0 2..4 </var>
    <var id="x65"> 4 9 10 </var>
    <var id="x66"> 4 8 10 </var>
    <var id="x67"> 0 2 4 10 </var>
    <var id="x68"> 4 8 10 </var>
    <var id="x69"> 9 10 </var>
    <var id="x70"> 2..4 8 </var>
    <var id="x71"> 2 5 14 </var>
    <var id="x72"> 2 8 9 12 </var>
    <var id="x73"> 5 9 12 13 </var>
    <var id="x74"> 8 12 </var>
    <var id="x75"> 5 8 9 12 </var>
    <var id="x76"> 9 12..14 </var>
    <var id="x77"> 2 5 8 14 </var>
    <var id="x78"> 2 4 8 12 </var>
    <var id="x79"> 4 5 8 </var>
    <var id="x80"> 4 5 12 </var>
    <var id="x81"> 2 4 5 8 </var>
    <var id="x82"> 1 5 8 12 </var>
    <var id="x83"> 4 6 8 12 </var>
    <var id="x84"> 2 4 5 8 </var>
    <var id="x85"> 2 4 10..12 </var>
    <var id="x86"> 4 5 </var>
    <var as="x51" id="x87"/>
    <var id="x88"> 2 4 5 </var>
    <var id="x89"> 4 6 11 </var>
    <var id="x90"> 5 10..12 </var>
    <var as="x85" id="x91"/>
    <var id="x92"> 1 2 8 14 </var>
    <var id="x93"> 2 4 8 10 </var>
    <var id="x94"> 4 8 14 </var>
    <var id="x95"> 0 1 8 10 </var>
    <var id="x96"> 1 4 8 10 14 </var>
    <var id="x97"> 1 10 14 </var>
    <var id="x98"> 2 4 8 14 </var>
    <var id="x99"> 4 5 11 14 </var>
    <var id="x100"> 4 10 12 </var>
    <var id="x101"> 4 5 9 14 </var>
    <var id="x102"> 5 9..12 </var>
    <var id="x103"> 4 10..12 14 </var>
    <var id="x104"> 4 10 12 </var>
    <var id="x105"> 4 5 10 12 14 </var>
  </variables>
  <constraints>
    <group>
      <allDifferent> %... </allDifferent>
      <args> x0 x1 x2 x3 x4 x5 x6 </args>
      <args> x7 x8 x9 x10 x11 x12 x13 </args>
      <args> x14 x15 x16 x17 x18 x19 x20 </args>
      <args> x21 x22 x23 x24 x25 x26 x27 </args>
      <args> x28 x29 x30 x31 x32 x33 x34 </args>
      <args> x35 x36 x37 x38 x39 x40 x41 x42 </args>
      <args> x43 x44 x45 x46 x47 x48 x49 </args>
      <args> x50 x51 x52 x53 x54 x55 x56 </args>
      <args> x57 x58 x59 x60 x61 x62 x63 </args>
      <args> x64 x65 x66 x67 x68 x69 x70 </args>
      <args> x71 x72 x73 x74 x75 x76 x77 </args>
      <args> x78 x79 x80 x81 x82 x83 x84 </args>
      <args> x85 x86 x87 x88 x89 x90 x91 </args>
      <args> x92 x93 x94 x95 x96 x97 x98 </args>
      <args> x99 x100 x101 x102 x103 x104 x105 </args>
      <args> x0 x14 x28 x43 x50 x57 x92 </args>
      <args> x1 x21 x29 x35 x64 x71 x99 </args>
      <args> x7 x36 x44 x72 x78 x85 x93 </args>
      <args> x2 x15 x30 x37 x79 x86 x94 </args>
      <args> x8 x51 x58 x65 x73 x80 x87 </args>
      <args> x16 x22 x38 x52 x66 x74 x100 </args>
      <args> x9 x23 x39 x45 x81 x88 x101 </args>
      <args> x3 x10 x17 x24 x31 x53 x59 </args>
      <args> x11 x25 x32 x40 x54 x60 x89 </args>
      <args> x4 x12 x46 x75 x82 x90 x95 x102 </args>
      <args> x5 x18 x33 x61 x67 x91 x103 </args>
      <args> x19 x26 x41 x47 x55 x83 x104 </args>
      <args> x13 x20 x27 x48 x68 x96 x105 </args>
      <args> x6 x42 x56 x62 x69 x76 x97 </args>
      <args> x34 x49 x63 x70 x77 x84 x98 </args>
    </group>
  </constraints>
</instance>

